c preprocessed version of dimacs_queen5_5, 18 vertices, 84 edges
p td 18 84
0 1
0 14
0 10
0 6
0 2
0 8
0 3
0 9
0 12
2 1
8 1
4 1
10 1
3 1
1 14
1 9
1 7
1 11
2 3
2 5
2 13
2 8
2 11
4 3
10 3
3 11
3 5
3 13
3 9
3 12
4 5
4 12
4 10
4 13
6 5
10 5
5 12
5 13
5 9
5 11
5 14
5 7
6 7
6 9
6 11
6 14
6 13
8 7
10 7
9 7
13 7
7 12
8 9
8 14
10 9
9 11
9 14
9 12
11 12
11 14
13 12
15 10
15 9
15 17
15 0
15 2
15 8
15 4
15 6
15 13
16 15
16 11
16 12
16 14
17 16
17 0
17 2
17 8
17 4
17 10
17 3
17 5
17 11
17 7
